\* right-error *\
Maximize
OBJ: violation
Subject To
_C1: g_0 >= 0
_C10: s + 48.7562561259 s_bin <= 49.7562561259
_C100: out_4_83426 = 0
_C101: - out_0_0 - out_1_0 - out_2_0 - out_3_0 - out_4_0 + 4.28571428571 s
 + violation = 0
_C11: - 1.17594354818 g_1 - 0.919282554156 g_2 + 1.076303641 out_0_24150
 - 0.812189506309 out_0_52697 + pre_0_0 = 0.45838635678
_C12: 2.48126528723 out_0_83426 + pre_0_24150 = -0.605254454636
_C13: - 1.36816142204 g_3 - 1.40631296165 g_4 + pre_0_52697 = -0.961761020104
_C14: - 0.875293492774 g_1 + pre_0_83426 = -1.9487483507
_C15: - 1.17594354818 g_0 - 0.919282554156 g_2 + 1.076303641 out_1_24150
 - 0.812189506309 out_1_52697 + pre_1_0 = 0.45838635678
_C16: 2.48126528723 out_1_83426 + pre_1_24150 = -0.605254454636
_C17: - 1.36816142204 g_3 - 1.40631296165 g_4 + pre_1_52697 = -0.961761020104
_C18: - 0.875293492774 g_0 + pre_1_83426 = -1.9487483507
_C19: - 1.17594354818 g_0 - 0.919282554156 g_1 + 1.076303641 out_2_24150
 - 0.812189506309 out_2_52697 + pre_2_0 = 0.45838635678
_C2: g_4 <= 1
_C20: 2.48126528723 out_2_83426 + pre_2_24150 = -0.605254454636
_C21: - 1.36816142204 g_3 - 1.40631296165 g_4 + pre_2_52697 = -0.961761020104
_C22: - 0.875293492774 g_0 + pre_2_83426 = -1.9487483507
_C23: - 1.17594354818 g_0 - 0.919282554156 g_1 + 1.076303641 out_3_24150
 - 0.812189506309 out_3_52697 + pre_3_0 = 0.45838635678
_C24: 2.48126528723 out_3_83426 + pre_3_24150 = -0.605254454636
_C25: - 1.36816142204 g_2 - 1.40631296165 g_4 + pre_3_52697 = -0.961761020104
_C26: - 0.875293492774 g_0 + pre_3_83426 = -1.9487483507
_C27: - 1.17594354818 g_0 - 0.919282554156 g_1 + 1.076303641 out_4_24150
 - 0.812189506309 out_4_52697 + pre_4_0 = 0.45838635678
_C28: 2.48126528723 out_4_83426 + pre_4_24150 = -0.605254454636
_C29: - 1.36816142204 g_2 - 1.40631296165 g_3 + pre_4_52697 = -0.961761020104
_C3: g_0 - g_1 <= 0
_C30: - 0.875293492774 g_0 + pre_4_83426 = -1.9487483507
_C31: out_0_0 - pre_0_0 >= 0
_C32: out_0_0 >= 0
_C33: out_0_0 - pre_0_0 + 4.87562561259 z_0_0 <= 4.87562561259
_C34: out_0_0 - 1.81055377506 z_0_0 <= 0
_C35: pre_0_0 - 1.81055377506 z_0_0 <= 0
_C36: pre_0_0 - 4.87562561259 z_0_0 >= -4.87562561259
_C37: out_0_24150 - pre_0_24150 = 0
_C38: out_0_52697 - pre_0_52697 >= 0
_C39: out_0_52697 >= 0
_C4: g_1 - g_2 <= 0
_C40: out_0_52697 - pre_0_52697 + 0.961761020104 z_0_52697 <= 0.961761020104
_C41: out_0_52697 - 1.81271336358 z_0_52697 <= 0
_C42: pre_0_52697 - 1.81271336358 z_0_52697 <= 0
_C43: pre_0_52697 - 0.961761020104 z_0_52697 >= -0.961761020104
_C44: out_0_83426 = 0
_C45: out_1_0 - pre_1_0 >= 0
_C46: out_1_0 >= 0
_C47: out_1_0 - pre_1_0 + 4.87562561259 z_1_0 <= 4.87562561259
_C48: out_1_0 - 1.81055377506 z_1_0 <= 0
_C49: pre_1_0 - 1.81055377506 z_1_0 <= 0
_C5: g_2 - g_3 <= 0
_C50: pre_1_0 - 4.87562561259 z_1_0 >= -4.87562561259
_C51: out_1_24150 - pre_1_24150 = 0
_C52: out_1_52697 - pre_1_52697 >= 0
_C53: out_1_52697 >= 0
_C54: out_1_52697 - pre_1_52697 + 0.961761020104 z_1_52697 <= 0.961761020104
_C55: out_1_52697 - 1.81271336358 z_1_52697 <= 0
_C56: pre_1_52697 - 1.81271336358 z_1_52697 <= 0
_C57: pre_1_52697 - 0.961761020104 z_1_52697 >= -0.961761020104
_C58: out_1_83426 = 0
_C59: out_2_0 - pre_2_0 >= 0
_C6: g_3 - g_4 <= 0
_C60: out_2_0 >= 0
_C61: out_2_0 - pre_2_0 + 4.87562561259 z_2_0 <= 4.87562561259
_C62: out_2_0 - 1.81055377506 z_2_0 <= 0
_C63: pre_2_0 - 1.81055377506 z_2_0 <= 0
_C64: pre_2_0 - 4.87562561259 z_2_0 >= -4.87562561259
_C65: out_2_24150 - pre_2_24150 = 0
_C66: out_2_52697 - pre_2_52697 >= 0
_C67: out_2_52697 >= 0
_C68: out_2_52697 - pre_2_52697 + 0.961761020104 z_2_52697 <= 0.961761020104
_C69: out_2_52697 - 1.81271336358 z_2_52697 <= 0
_C7: - g_0 - g_1 - g_2 - g_3 - g_4 + s >= 0
_C70: pre_2_52697 - 1.81271336358 z_2_52697 <= 0
_C71: pre_2_52697 - 0.961761020104 z_2_52697 >= -0.961761020104
_C72: out_2_83426 = 0
_C73: out_3_0 - pre_3_0 >= 0
_C74: out_3_0 >= 0
_C75: out_3_0 - pre_3_0 + 4.87562561259 z_3_0 <= 4.87562561259
_C76: out_3_0 - 1.81055377506 z_3_0 <= 0
_C77: pre_3_0 - 1.81055377506 z_3_0 <= 0
_C78: pre_3_0 - 4.87562561259 z_3_0 >= -4.87562561259
_C79: out_3_24150 - pre_3_24150 = 0
_C8: s >= 1
_C80: out_3_52697 - pre_3_52697 >= 0
_C81: out_3_52697 >= 0
_C82: out_3_52697 - pre_3_52697 + 0.961761020104 z_3_52697 <= 0.961761020104
_C83: out_3_52697 - 1.81271336358 z_3_52697 <= 0
_C84: pre_3_52697 - 1.81271336358 z_3_52697 <= 0
_C85: pre_3_52697 - 0.961761020104 z_3_52697 >= -0.961761020104
_C86: out_3_83426 = 0
_C87: out_4_0 - pre_4_0 >= 0
_C88: out_4_0 >= 0
_C89: out_4_0 - pre_4_0 + 4.87562561259 z_4_0 <= 4.87562561259
_C9: - g_0 - g_1 - g_2 - g_3 - g_4 + s - 48.7562561259 s_bin <= 0
_C90: out_4_0 - 1.81055377506 z_4_0 <= 0
_C91: pre_4_0 - 1.81055377506 z_4_0 <= 0
_C92: pre_4_0 - 4.87562561259 z_4_0 >= -4.87562561259
_C93: out_4_24150 - pre_4_24150 = 0
_C94: out_4_52697 - pre_4_52697 >= 0
_C95: out_4_52697 >= 0
_C96: out_4_52697 - pre_4_52697 + 0.961761020104 z_4_52697 <= 0.961761020104
_C97: out_4_52697 - 1.81271336358 z_4_52697 <= 0
_C98: pre_4_52697 - 1.81271336358 z_4_52697 <= 0
_C99: pre_4_52697 - 0.961761020104 z_4_52697 >= -0.961761020104
Bounds
 g_0 <= 1
 g_1 <= 1
 g_2 <= 1
 g_3 <= 1
 g_4 <= 1
 2.05827182174 <= out_0_24150 <= 4.23010718149
 out_0_83426 = 0
 2.05827182174 <= out_1_24150 <= 4.23010718149
 out_1_83426 = 0
 2.05827182174 <= out_2_24150 <= 4.23010718149
 out_2_83426 = 0
 2.05827182174 <= out_3_24150 <= 4.23010718149
 out_3_83426 = 0
 2.05827182174 <= out_4_24150 <= 4.23010718149
 out_4_83426 = 0
 -4.87562561259 <= pre_0_0 <= 1.81055377506
 2.05827182174 <= pre_0_24150 <= 4.23010718149
 -0.961761020104 <= pre_0_52697 <= 1.81271336358
 -1.9487483507 <= pre_0_83426 <= -1.07345485792
 -4.87562561259 <= pre_1_0 <= 1.81055377506
 2.05827182174 <= pre_1_24150 <= 4.23010718149
 -0.961761020104 <= pre_1_52697 <= 1.81271336358
 -1.9487483507 <= pre_1_83426 <= -1.07345485792
 -4.87562561259 <= pre_2_0 <= 1.81055377506
 2.05827182174 <= pre_2_24150 <= 4.23010718149
 -0.961761020104 <= pre_2_52697 <= 1.81271336358
 -1.9487483507 <= pre_2_83426 <= -1.07345485792
 -4.87562561259 <= pre_3_0 <= 1.81055377506
 2.05827182174 <= pre_3_24150 <= 4.23010718149
 -0.961761020104 <= pre_3_52697 <= 1.81271336358
 -1.9487483507 <= pre_3_83426 <= -1.07345485792
 -4.87562561259 <= pre_4_0 <= 1.81055377506
 2.05827182174 <= pre_4_24150 <= 4.23010718149
 -0.961761020104 <= pre_4_52697 <= 1.81271336358
 -1.9487483507 <= pre_4_83426 <= -1.07345485792
 s free
 violation free
Binaries
s_bin
z_0_0
z_0_52697
z_1_0
z_1_52697
z_2_0
z_2_52697
z_3_0
z_3_52697
z_4_0
z_4_52697
End
